c Generated with `cnfgen`
c (C) 2012-2018 Massimo Lauria <lauria.massimo@gmail.com>
c https://massimolauria.net/cnfgen
c
c COMMAND LINE: cnfgen tseitin --gnd 110 5 --charge randomodd
c
p cnf 275 1760
1 2 3 4 -5 0
1 2 3 -4 5 0
1 2 -3 4 5 0
1 2 -3 -4 -5 0
1 -2 3 4 5 0
1 -2 3 -4 -5 0
1 -2 -3 4 -5 0
1 -2 -3 -4 5 0
-1 2 3 4 5 0
-1 2 3 -4 -5 0
-1 2 -3 4 -5 0
-1 2 -3 -4 5 0
-1 -2 3 4 -5 0
-1 -2 3 -4 5 0
-1 -2 -3 4 5 0
-1 -2 -3 -4 -5 0
6 7 8 9 -10 0
6 7 8 -9 10 0
6 7 -8 9 10 0
6 7 -8 -9 -10 0
6 -7 8 9 10 0
6 -7 8 -9 -10 0
6 -7 -8 9 -10 0
6 -7 -8 -9 10 0
-6 7 8 9 10 0
-6 7 8 -9 -10 0
-6 7 -8 9 -10 0
-6 7 -8 -9 10 0
-6 -7 8 9 -10 0
-6 -7 8 -9 10 0
-6 -7 -8 9 10 0
-6 -7 -8 -9 -10 0
11 12 13 14 -15 0
11 12 13 -14 15 0
11 12 -13 14 15 0
11 12 -13 -14 -15 0
11 -12 13 14 15 0
11 -12 13 -14 -15 0
11 -12 -13 14 -15 0
11 -12 -13 -14 15 0
-11 12 13 14 15 0
-11 12 13 -14 -15 0
-11 12 -13 14 -15 0
-11 12 -13 -14 15 0
-11 -12 13 14 -15 0
-11 -12 13 -14 15 0
-11 -12 -13 14 15 0
-11 -12 -13 -14 -15 0
1 16 17 18 -19 0
1 16 17 -18 19 0
1 16 -17 18 19 0
1 16 -17 -18 -19 0
1 -16 17 18 19 0
1 -16 17 -18 -19 0
1 -16 -17 18 -19 0
1 -16 -17 -18 19 0
-1 16 17 18 19 0
-1 16 17 -18 -19 0
-1 16 -17 18 -19 0
-1 16 -17 -18 19 0
-1 -16 17 18 -19 0
-1 -16 17 -18 19 0
-1 -16 -17 18 19 0
-1 -16 -17 -18 -19 0
20 21 22 23 -24 0
20 21 22 -23 24 0
20 21 -22 23 24 0
20 21 -22 -23 -24 0
20 -21 22 23 24 0
20 -21 22 -23 -24 0
20 -21 -22 23 -24 0
20 -21 -22 -23 24 0
-20 21 22 23 24 0
-20 21 22 -23 -24 0
-20 21 -22 23 -24 0
-20 21 -22 -23 24 0
-20 -21 22 23 -24 0
-20 -21 22 -23 24 0
-20 -21 -22 23 24 0
-20 -21 -22 -23 -24 0
25 26 27 28 29 0
25 26 27 -28 -29 0
25 26 -27 28 -29 0
25 26 -27 -28 29 0
25 -26 27 28 -29 0
25 -26 27 -28 29 0
25 -26 -27 28 29 0
25 -26 -27 -28 -29 0
-25 26 27 28 -29 0
-25 26 27 -28 29 0
-25 26 -27 28 29 0
-25 26 -27 -28 -29 0
-25 -26 27 28 29 0
-25 -26 27 -28 -29 0
-25 -26 -27 28 -29 0
-25 -26 -27 -28 29 0
30 31 32 33 -34 0
30 31 32 -33 34 0
30 31 -32 33 34 0
30 31 -32 -33 -34 0
30 -31 32 33 34 0
30 -31 32 -33 -34 0
30 -31 -32 33 -34 0
30 -31 -32 -33 34 0
-30 31 32 33 34 0
-30 31 32 -33 -34 0
-30 31 -32 33 -34 0
-30 31 -32 -33 34 0
-30 -31 32 33 -34 0
-30 -31 32 -33 34 0
-30 -31 -32 33 34 0
-30 -31 -32 -33 -34 0
35 36 37 38 39 0
35 36 37 -38 -39 0
35 36 -37 38 -39 0
35 36 -37 -38 39 0
35 -36 37 38 -39 0
35 -36 37 -38 39 0
35 -36 -37 38 39 0
35 -36 -37 -38 -39 0
-35 36 37 38 -39 0
-35 36 37 -38 39 0
-35 36 -37 38 39 0
-35 36 -37 -38 -39 0
-35 -36 37 38 39 0
-35 -36 37 -38 -39 0
-35 -36 -37 38 -39 0
-35 -36 -37 -38 39 0
35 40 41 42 -43 0
35 40 41 -42 43 0
35 40 -41 42 43 0
35 40 -41 -42 -43 0
35 -40 41 42 43 0
35 -40 41 -42 -43 0
35 -40 -41 42 -43 0
35 -40 -41 -42 43 0
-35 40 41 42 43 0
-35 40 41 -42 -43 0
-35 40 -41 42 -43 0
-35 40 -41 -42 43 0
-35 -40 41 42 -43 0
-35 -40 41 -42 43 0
-35 -40 -41 42 43 0
-35 -40 -41 -42 -43 0
30 44 45 46 -47 0
30 44 45 -46 47 0
30 44 -45 46 47 0
30 44 -45 -46 -47 0
30 -44 45 46 47 0
30 -44 45 -46 -47 0
30 -44 -45 46 -47 0
30 -44 -45 -46 47 0
-30 44 45 46 47 0
-30 44 45 -46 -47 0
-30 44 -45 46 -47 0
-30 44 -45 -46 47 0
-30 -44 45 46 -47 0
-30 -44 45 -46 47 0
-30 -44 -45 46 47 0
-30 -44 -45 -46 -47 0
31 48 49 50 51 0
31 48 49 -50 -51 0
31 48 -49 50 -51 0
31 48 -49 -50 51 0
31 -48 49 50 -51 0
31 -48 49 -50 51 0
31 -48 -49 50 51 0
31 -48 -49 -50 -51 0
-31 48 49 50 -51 0
-31 48 49 -50 51 0
-31 48 -49 50 51 0
-31 48 -49 -50 -51 0
-31 -48 49 50 51 0
-31 -48 49 -50 -51 0
-31 -48 -49 50 -51 0
-31 -48 -49 -50 51 0
52 53 54 55 -56 0
52 53 54 -55 56 0
52 53 -54 55 56 0
52 53 -54 -55 -56 0
52 -53 54 55 56 0
52 -53 54 -55 -56 0
52 -53 -54 55 -56 0
52 -53 -54 -55 56 0
-52 53 54 55 56 0
-52 53 54 -55 -56 0
-52 53 -54 55 -56 0
-52 53 -54 -55 56 0
-52 -53 54 55 -56 0
-52 -53 54 -55 56 0
-52 -53 -54 55 56 0
-52 -53 -54 -55 -56 0
57 58 59 60 61 0
57 58 59 -60 -61 0
57 58 -59 60 -61 0
57 58 -59 -60 61 0
57 -58 59 60 -61 0
57 -58 59 -60 61 0
57 -58 -59 60 61 0
57 -58 -59 -60 -61 0
-57 58 59 60 -61 0
-57 58 59 -60 61 0
-57 58 -59 60 61 0
-57 58 -59 -60 -61 0
-57 -58 59 60 61 0
-57 -58 59 -60 -61 0
-57 -58 -59 60 -61 0
-57 -58 -59 -60 61 0
32 62 63 64 -65 0
32 62 63 -64 65 0
32 62 -63 64 65 0
32 62 -63 -64 -65 0
32 -62 63 64 65 0
32 -62 63 -64 -65 0
32 -62 -63 64 -65 0
32 -62 -63 -64 65 0
-32 62 63 64 65 0
-32 62 63 -64 -65 0
-32 62 -63 64 -65 0
-32 62 -63 -64 65 0
-32 -62 63 64 -65 0
-32 -62 63 -64 65 0
-32 -62 -63 64 65 0
-32 -62 -63 -64 -65 0
11 66 67 68 69 0
11 66 67 -68 -69 0
11 66 -67 68 -69 0
11 66 -67 -68 69 0
11 -66 67 68 -69 0
11 -66 67 -68 69 0
11 -66 -67 68 69 0
11 -66 -67 -68 -69 0
-11 66 67 68 -69 0
-11 66 67 -68 69 0
-11 66 -67 68 69 0
-11 66 -67 -68 -69 0
-11 -66 67 68 69 0
-11 -66 67 -68 -69 0
-11 -66 -67 68 -69 0
-11 -66 -67 -68 69 0
2 70 71 72 -73 0
2 70 71 -72 73 0
2 70 -71 72 73 0
2 70 -71 -72 -73 0
2 -70 71 72 73 0
2 -70 71 -72 -73 0
2 -70 -71 72 -73 0
2 -70 -71 -72 73 0
-2 70 71 72 73 0
-2 70 71 -72 -73 0
-2 70 -71 72 -73 0
-2 70 -71 -72 73 0
-2 -70 71 72 -73 0
-2 -70 71 -72 73 0
-2 -70 -71 72 73 0
-2 -70 -71 -72 -73 0
25 74 75 76 -77 0
25 74 75 -76 77 0
25 74 -75 76 77 0
25 74 -75 -76 -77 0
25 -74 75 76 77 0
25 -74 75 -76 -77 0
25 -74 -75 76 -77 0
25 -74 -75 -76 77 0
-25 74 75 76 77 0
-25 74 75 -76 -77 0
-25 74 -75 76 -77 0
-25 74 -75 -76 77 0
-25 -74 75 76 -77 0
-25 -74 75 -76 77 0
-25 -74 -75 76 77 0
-25 -74 -75 -76 -77 0
36 78 79 80 81 0
36 78 79 -80 -81 0
36 78 -79 80 -81 0
36 78 -79 -80 81 0
36 -78 79 80 -81 0
36 -78 79 -80 81 0
36 -78 -79 80 81 0
36 -78 -79 -80 -81 0
-36 78 79 80 -81 0
-36 78 79 -80 81 0
-36 78 -79 80 81 0
-36 78 -79 -80 -81 0
-36 -78 79 80 81 0
-36 -78 79 -80 -81 0
-36 -78 -79 80 -81 0
-36 -78 -79 -80 81 0
37 82 83 84 85 0
37 82 83 -84 -85 0
37 82 -83 84 -85 0
37 82 -83 -84 85 0
37 -82 83 84 -85 0
37 -82 83 -84 85 0
37 -82 -83 84 85 0
37 -82 -83 -84 -85 0
-37 82 83 84 -85 0
-37 82 83 -84 85 0
-37 82 -83 84 85 0
-37 82 -83 -84 -85 0
-37 -82 83 84 85 0
-37 -82 83 -84 -85 0
-37 -82 -83 84 -85 0
-37 -82 -83 -84 85 0
52 86 87 88 89 0
52 86 87 -88 -89 0
52 86 -87 88 -89 0
52 86 -87 -88 89 0
52 -86 87 88 -89 0
52 -86 87 -88 89 0
52 -86 -87 88 89 0
52 -86 -87 -88 -89 0
-52 86 87 88 -89 0
-52 86 87 -88 89 0
-52 86 -87 88 89 0
-52 86 -87 -88 -89 0
-52 -86 87 88 89 0
-52 -86 87 -88 -89 0
-52 -86 -87 88 -89 0
-52 -86 -87 -88 89 0
12 90 91 92 -93 0
12 90 91 -92 93 0
12 90 -91 92 93 0
12 90 -91 -92 -93 0
12 -90 91 92 93 0
12 -90 91 -92 -93 0
12 -90 -91 92 -93 0
12 -90 -91 -92 93 0
-12 90 91 92 93 0
-12 90 91 -92 -93 0
-12 90 -91 92 -93 0
-12 90 -91 -92 93 0
-12 -90 91 92 -93 0
-12 -90 91 -92 93 0
-12 -90 -91 92 93 0
-12 -90 -91 -92 -93 0
94 95 96 97 98 0
94 95 96 -97 -98 0
94 95 -96 97 -98 0
94 95 -96 -97 98 0
94 -95 96 97 -98 0
94 -95 96 -97 98 0
94 -95 -96 97 98 0
94 -95 -96 -97 -98 0
-94 95 96 97 -98 0
-94 95 96 -97 98 0
-94 95 -96 97 98 0
-94 95 -96 -97 -98 0
-94 -95 96 97 98 0
-94 -95 96 -97 -98 0
-94 -95 -96 97 -98 0
-94 -95 -96 -97 98 0
99 100 101 102 -103 0
99 100 101 -102 103 0
99 100 -101 102 103 0
99 100 -101 -102 -103 0
99 -100 101 102 103 0
99 -100 101 -102 -103 0
99 -100 -101 102 -103 0
99 -100 -101 -102 103 0
-99 100 101 102 103 0
-99 100 101 -102 -103 0
-99 100 -101 102 -103 0
-99 100 -101 -102 103 0
-99 -100 101 102 -103 0
-99 -100 101 -102 103 0
-99 -100 -101 102 103 0
-99 -100 -101 -102 -103 0
13 104 105 106 107 0
13 104 105 -106 -107 0
13 104 -105 106 -107 0
13 104 -105 -106 107 0
13 -104 105 106 -107 0
13 -104 105 -106 107 0
13 -104 -105 106 107 0
13 -104 -105 -106 -107 0
-13 104 105 106 -107 0
-13 104 105 -106 107 0
-13 104 -105 106 107 0
-13 104 -105 -106 -107 0
-13 -104 105 106 107 0
-13 -104 105 -106 -107 0
-13 -104 -105 106 -107 0
-13 -104 -105 -106 107 0
108 109 110 111 112 0
108 109 110 -111 -112 0
108 109 -110 111 -112 0
108 109 -110 -111 112 0
108 -109 110 111 -112 0
108 -109 110 -111 112 0
108 -109 -110 111 112 0
108 -109 -110 -111 -112 0
-108 109 110 111 -112 0
-108 109 110 -111 112 0
-108 109 -110 111 112 0
-108 109 -110 -111 -112 0
-108 -109 110 111 112 0
-108 -109 110 -111 -112 0
-108 -109 -110 111 -112 0
-108 -109 -110 -111 112 0
6 40 44 113 -114 0
6 40 44 -113 114 0
6 40 -44 113 114 0
6 40 -44 -113 -114 0
6 -40 44 113 114 0
6 -40 44 -113 -114 0
6 -40 -44 113 -114 0
6 -40 -44 -113 114 0
-6 40 44 113 114 0
-6 40 44 -113 -114 0
-6 40 -44 113 -114 0
-6 40 -44 -113 114 0
-6 -40 44 113 -114 0
-6 -40 44 -113 114 0
-6 -40 -44 113 114 0
-6 -40 -44 -113 -114 0
108 115 116 117 -118 0
108 115 116 -117 118 0
108 115 -116 117 118 0
108 115 -116 -117 -118 0
108 -115 116 117 118 0
108 -115 116 -117 -118 0
108 -115 -116 117 -118 0
108 -115 -116 -117 118 0
-108 115 116 117 118 0
-108 115 116 -117 -118 0
-108 115 -116 117 -118 0
-108 115 -116 -117 118 0
-108 -115 116 117 -118 0
-108 -115 116 -117 118 0
-108 -115 -116 117 118 0
-108 -115 -116 -117 -118 0
20 119 120 121 -122 0
20 119 120 -121 122 0
20 119 -120 121 122 0
20 119 -120 -121 -122 0
20 -119 120 121 122 0
20 -119 120 -121 -122 0
20 -119 -120 121 -122 0
20 -119 -120 -121 122 0
-20 119 120 121 122 0
-20 119 120 -121 -122 0
-20 119 -120 121 -122 0
-20 119 -120 -121 122 0
-20 -119 120 121 -122 0
-20 -119 120 -121 122 0
-20 -119 -120 121 122 0
-20 -119 -120 -121 -122 0
123 124 125 126 127 0
123 124 125 -126 -127 0
123 124 -125 126 -127 0
123 124 -125 -126 127 0
123 -124 125 126 -127 0
123 -124 125 -126 127 0
123 -124 -125 126 127 0
123 -124 -125 -126 -127 0
-123 124 125 126 -127 0
-123 124 125 -126 127 0
-123 124 -125 126 127 0
-123 124 -125 -126 -127 0
-123 -124 125 126 127 0
-123 -124 125 -126 -127 0
-123 -124 -125 126 -127 0
-123 -124 -125 -126 127 0
45 62 128 129 130 0
45 62 128 -129 -130 0
45 62 -128 129 -130 0
45 62 -128 -129 130 0
45 -62 128 129 -130 0
45 -62 128 -129 130 0
45 -62 -128 129 130 0
45 -62 -128 -129 -130 0
-45 62 128 129 -130 0
-45 62 128 -129 130 0
-45 62 -128 129 130 0
-45 62 -128 -129 -130 0
-45 -62 128 129 130 0
-45 -62 128 -129 -130 0
-45 -62 -128 129 -130 0
-45 -62 -128 -129 130 0
41 86 131 132 -133 0
41 86 131 -132 133 0
41 86 -131 132 133 0
41 86 -131 -132 -133 0
41 -86 131 132 133 0
41 -86 131 -132 -133 0
41 -86 -131 132 -133 0
41 -86 -131 -132 133 0
-41 86 131 132 133 0
-41 86 131 -132 -133 0
-41 86 -131 132 -133 0
-41 86 -131 -132 133 0
-41 -86 131 132 -133 0
-41 -86 131 -132 133 0
-41 -86 -131 132 133 0
-41 -86 -131 -132 -133 0
104 134 135 136 -137 0
104 134 135 -136 137 0
104 134 -135 136 137 0
104 134 -135 -136 -137 0
104 -134 135 136 137 0
104 -134 135 -136 -137 0
104 -134 -135 136 -137 0
104 -134 -135 -136 137 0
-104 134 135 136 137 0
-104 134 135 -136 -137 0
-104 134 -135 136 -137 0
-104 134 -135 -136 137 0
-104 -134 135 136 -137 0
-104 -134 135 -136 137 0
-104 -134 -135 136 137 0
-104 -134 -135 -136 -137 0
46 138 139 140 -141 0
46 138 139 -140 141 0
46 138 -139 140 141 0
46 138 -139 -140 -141 0
46 -138 139 140 141 0
46 -138 139 -140 -141 0
46 -138 -139 140 -141 0
46 -138 -139 -140 141 0
-46 138 139 140 141 0
-46 138 139 -140 -141 0
-46 138 -139 140 -141 0
-46 138 -139 -140 141 0
-46 -138 139 140 -141 0
-46 -138 139 -140 141 0
-46 -138 -139 140 141 0
-46 -138 -139 -140 -141 0
66 142 143 144 145 0
66 142 143 -144 -145 0
66 142 -143 144 -145 0
66 142 -143 -144 145 0
66 -142 143 144 -145 0
66 -142 143 -144 145 0
66 -142 -143 144 145 0
66 -142 -143 -144 -145 0
-66 142 143 144 -145 0
-66 142 143 -144 145 0
-66 142 -143 144 145 0
-66 142 -143 -144 -145 0
-66 -142 143 144 145 0
-66 -142 143 -144 -145 0
-66 -142 -143 144 -145 0
-66 -142 -143 -144 145 0
57 90 109 146 -147 0
57 90 109 -146 147 0
57 90 -109 146 147 0
57 90 -109 -146 -147 0
57 -90 109 146 147 0
57 -90 109 -146 -147 0
57 -90 -109 146 -147 0
57 -90 -109 -146 147 0
-57 90 109 146 147 0
-57 90 109 -146 -147 0
-57 90 -109 146 -147 0
-57 90 -109 -146 147 0
-57 -90 109 146 -147 0
-57 -90 109 -146 147 0
-57 -90 -109 146 147 0
-57 -90 -109 -146 -147 0
148 149 150 151 -152 0
148 149 150 -151 152 0
148 149 -150 151 152 0
148 149 -150 -151 -152 0
148 -149 150 151 152 0
148 -149 150 -151 -152 0
148 -149 -150 151 -152 0
148 -149 -150 -151 152 0
-148 149 150 151 152 0
-148 149 150 -151 -152 0
-148 149 -150 151 -152 0
-148 149 -150 -151 152 0
-148 -149 150 151 -152 0
-148 -149 150 -151 152 0
-148 -149 -150 151 152 0
-148 -149 -150 -151 -152 0
153 154 155 156 -157 0
153 154 155 -156 157 0
153 154 -155 156 157 0
153 154 -155 -156 -157 0
153 -154 155 156 157 0
153 -154 155 -156 -157 0
153 -154 -155 156 -157 0
153 -154 -155 -156 157 0
-153 154 155 156 157 0
-153 154 155 -156 -157 0
-153 154 -155 156 -157 0
-153 154 -155 -156 157 0
-153 -154 155 156 -157 0
-153 -154 155 -156 157 0
-153 -154 -155 156 157 0
-153 -154 -155 -156 -157 0
87 113 158 159 160 0
87 113 158 -159 -160 0
87 113 -158 159 -160 0
87 113 -158 -159 160 0
87 -113 158 159 -160 0
87 -113 158 -159 160 0
87 -113 -158 159 160 0
87 -113 -158 -159 -160 0
-87 113 158 159 -160 0
-87 113 158 -159 160 0
-87 113 -158 159 160 0
-87 113 -158 -159 -160 0
-87 -113 158 159 160 0
-87 -113 158 -159 -160 0
-87 -113 -158 159 -160 0
-87 -113 -158 -159 160 0
42 142 161 162 163 0
42 142 161 -162 -163 0
42 142 -161 162 -163 0
42 142 -161 -162 163 0
42 -142 161 162 -163 0
42 -142 161 -162 163 0
42 -142 -161 162 163 0
42 -142 -161 -162 -163 0
-42 142 161 162 -163 0
-42 142 161 -162 163 0
-42 142 -161 162 163 0
-42 142 -161 -162 -163 0
-42 -142 161 162 163 0
-42 -142 161 -162 -163 0
-42 -142 -161 162 -163 0
-42 -142 -161 -162 163 0
67 164 165 166 167 0
67 164 165 -166 -167 0
67 164 -165 166 -167 0
67 164 -165 -166 167 0
67 -164 165 166 -167 0
67 -164 165 -166 167 0
67 -164 -165 166 167 0
67 -164 -165 -166 -167 0
-67 164 165 166 -167 0
-67 164 165 -166 167 0
-67 164 -165 166 167 0
-67 164 -165 -166 -167 0
-67 -164 165 166 167 0
-67 -164 165 -166 -167 0
-67 -164 -165 166 -167 0
-67 -164 -165 -166 167 0
48 99 146 168 -169 0
48 99 146 -168 169 0
48 99 -146 168 169 0
48 99 -146 -168 -169 0
48 -99 146 168 169 0
48 -99 146 -168 -169 0
48 -99 -146 168 -169 0
48 -99 -146 -168 169 0
-48 99 146 168 169 0
-48 99 146 -168 -169 0
-48 99 -146 168 -169 0
-48 99 -146 -168 169 0
-48 -99 146 168 -169 0
-48 -99 146 -168 169 0
-48 -99 -146 168 169 0
-48 -99 -146 -168 -169 0
7 49 53 105 170 0
7 49 53 -105 -170 0
7 49 -53 105 -170 0
7 49 -53 -105 170 0
7 -49 53 105 -170 0
7 -49 53 -105 170 0
7 -49 -53 105 170 0
7 -49 -53 -105 -170 0
-7 49 53 105 -170 0
-7 49 53 -105 170 0
-7 49 -53 105 170 0
-7 49 -53 -105 -170 0
-7 -49 53 105 170 0
-7 -49 53 -105 -170 0
-7 -49 -53 105 -170 0
-7 -49 -53 -105 170 0
50 88 115 171 172 0
50 88 115 -171 -172 0
50 88 -115 171 -172 0
50 88 -115 -171 172 0
50 -88 115 171 -172 0
50 -88 115 -171 172 0
50 -88 -115 171 172 0
50 -88 -115 -171 -172 0
-50 88 115 171 -172 0
-50 88 115 -171 172 0
-50 88 -115 171 172 0
-50 88 -115 -171 -172 0
-50 -88 115 171 172 0
-50 -88 115 -171 -172 0
-50 -88 -115 171 -172 0
-50 -88 -115 -171 172 0
58 119 164 173 -174 0
58 119 164 -173 174 0
58 119 -164 173 174 0
58 119 -164 -173 -174 0
58 -119 164 173 174 0
58 -119 164 -173 -174 0
58 -119 -164 173 -174 0
58 -119 -164 -173 174 0
-58 119 164 173 174 0
-58 119 164 -173 -174 0
-58 119 -164 173 -174 0
-58 119 -164 -173 174 0
-58 -119 164 173 -174 0
-58 -119 164 -173 174 0
-58 -119 -164 173 174 0
-58 -119 -164 -173 -174 0
3 26 68 175 -176 0
3 26 68 -175 176 0
3 26 -68 175 176 0
3 26 -68 -175 -176 0
3 -26 68 175 176 0
3 -26 68 -175 -176 0
3 -26 -68 175 -176 0
3 -26 -68 -175 176 0
-3 26 68 175 176 0
-3 26 68 -175 -176 0
-3 26 -68 175 -176 0
-3 26 -68 -175 176 0
-3 -26 68 175 -176 0
-3 -26 68 -175 176 0
-3 -26 -68 175 176 0
-3 -26 -68 -175 -176 0
51 177 178 179 180 0
51 177 178 -179 -180 0
51 177 -178 179 -180 0
51 177 -178 -179 180 0
51 -177 178 179 -180 0
51 -177 178 -179 180 0
51 -177 -178 179 180 0
51 -177 -178 -179 -180 0
-51 177 178 179 -180 0
-51 177 178 -179 180 0
-51 177 -178 179 180 0
-51 177 -178 -179 -180 0
-51 -177 178 179 180 0
-51 -177 178 -179 -180 0
-51 -177 -178 179 -180 0
-51 -177 -178 -179 180 0
94 128 181 182 183 0
94 128 181 -182 -183 0
94 128 -181 182 -183 0
94 128 -181 -182 183 0
94 -128 181 182 -183 0
94 -128 181 -182 183 0
94 -128 -181 182 183 0
94 -128 -181 -182 -183 0
-94 128 181 182 -183 0
-94 128 181 -182 183 0
-94 128 -181 182 183 0
-94 128 -181 -182 -183 0
-94 -128 181 182 183 0
-94 -128 181 -182 -183 0
-94 -128 -181 182 -183 0
-94 -128 -181 -182 183 0
95 184 185 186 -187 0
95 184 185 -186 187 0
95 184 -185 186 187 0
95 184 -185 -186 -187 0
95 -184 185 186 187 0
95 -184 185 -186 -187 0
95 -184 -185 186 -187 0
95 -184 -185 -186 187 0
-95 184 185 186 187 0
-95 184 185 -186 -187 0
-95 184 -185 186 -187 0
-95 184 -185 -186 187 0
-95 -184 185 186 -187 0
-95 -184 185 -186 187 0
-95 -184 -185 186 187 0
-95 -184 -185 -186 -187 0
59 188 189 190 -191 0
59 188 189 -190 191 0
59 188 -189 190 191 0
59 188 -189 -190 -191 0
59 -188 189 190 191 0
59 -188 189 -190 -191 0
59 -188 -189 190 -191 0
59 -188 -189 -190 191 0
-59 188 189 190 191 0
-59 188 189 -190 -191 0
-59 188 -189 190 -191 0
-59 188 -189 -190 191 0
-59 -188 189 190 -191 0
-59 -188 189 -190 191 0
-59 -188 -189 190 191 0
-59 -188 -189 -190 -191 0
16 158 165 192 193 0
16 158 165 -192 -193 0
16 158 -165 192 -193 0
16 158 -165 -192 193 0
16 -158 165 192 -193 0
16 -158 165 -192 193 0
16 -158 -165 192 193 0
16 -158 -165 -192 -193 0
-16 158 165 192 -193 0
-16 158 165 -192 193 0
-16 158 -165 192 193 0
-16 158 -165 -192 -193 0
-16 -158 165 192 193 0
-16 -158 165 -192 -193 0
-16 -158 -165 192 -193 0
-16 -158 -165 -192 193 0
194 195 196 197 198 0
194 195 196 -197 -198 0
194 195 -196 197 -198 0
194 195 -196 -197 198 0
194 -195 196 197 -198 0
194 -195 196 -197 198 0
194 -195 -196 197 198 0
194 -195 -196 -197 -198 0
-194 195 196 197 -198 0
-194 195 196 -197 198 0
-194 195 -196 197 198 0
-194 195 -196 -197 -198 0
-194 -195 196 197 198 0
-194 -195 196 -197 -198 0
-194 -195 -196 197 -198 0
-194 -195 -196 -197 198 0
82 120 153 184 199 0
82 120 153 -184 -199 0
82 120 -153 184 -199 0
82 120 -153 -184 199 0
82 -120 153 184 -199 0
82 -120 153 -184 199 0
82 -120 -153 184 199 0
82 -120 -153 -184 -199 0
-82 120 153 184 -199 0
-82 120 153 -184 199 0
-82 120 -153 184 199 0
-82 120 -153 -184 -199 0
-82 -120 153 184 199 0
-82 -120 153 -184 -199 0
-82 -120 -153 184 -199 0
-82 -120 -153 -184 199 0
38 70 188 200 -201 0
38 70 188 -200 201 0
38 70 -188 200 201 0
38 70 -188 -200 -201 0
38 -70 188 200 201 0
38 -70 188 -200 -201 0
38 -70 -188 200 -201 0
38 -70 -188 -200 201 0
-38 70 188 200 201 0
-38 70 188 -200 -201 0
-38 70 -188 200 -201 0
-38 70 -188 -200 201 0
-38 -70 188 200 -201 0
-38 -70 188 -200 201 0
-38 -70 -188 200 201 0
-38 -70 -188 -200 -201 0
21 134 194 202 -203 0
21 134 194 -202 203 0
21 134 -194 202 203 0
21 134 -194 -202 -203 0
21 -134 194 202 203 0
21 -134 194 -202 -203 0
21 -134 -194 202 -203 0
21 -134 -194 -202 203 0
-21 134 194 202 203 0
-21 134 194 -202 -203 0
-21 134 -194 202 -203 0
-21 134 -194 -202 203 0
-21 -134 194 202 -203 0
-21 -134 194 -202 203 0
-21 -134 -194 202 203 0
-21 -134 -194 -202 -203 0
8 83 204 205 -206 0
8 83 204 -205 206 0
8 83 -204 205 206 0
8 83 -204 -205 -206 0
8 -83 204 205 206 0
8 -83 204 -205 -206 0
8 -83 -204 205 -206 0
8 -83 -204 -205 206 0
-8 83 204 205 206 0
-8 83 204 -205 -206 0
-8 83 -204 205 -206 0
-8 83 -204 -205 206 0
-8 -83 204 205 -206 0
-8 -83 204 -205 206 0
-8 -83 -204 205 206 0
-8 -83 -204 -205 -206 0
71 207 208 209 210 0
71 207 208 -209 -210 0
71 207 -208 209 -210 0
71 207 -208 -209 210 0
71 -207 208 209 -210 0
71 -207 208 -209 210 0
71 -207 -208 209 210 0
71 -207 -208 -209 -210 0
-71 207 208 209 -210 0
-71 207 208 -209 210 0
-71 207 -208 209 210 0
-71 207 -208 -209 -210 0
-71 -207 208 209 210 0
-71 -207 208 -209 -210 0
-71 -207 -208 209 -210 0
-71 -207 -208 -209 210 0
9 89 211 212 -213 0
9 89 211 -212 213 0
9 89 -211 212 213 0
9 89 -211 -212 -213 0
9 -89 211 212 213 0
9 -89 211 -212 -213 0
9 -89 -211 212 -213 0
9 -89 -211 -212 213 0
-9 89 211 212 213 0
-9 89 211 -212 -213 0
-9 89 -211 212 -213 0
-9 89 -211 -212 213 0
-9 -89 211 212 -213 0
-9 -89 211 -212 213 0
-9 -89 -211 212 213 0
-9 -89 -211 -212 -213 0
63 135 214 215 216 0
63 135 214 -215 -216 0
63 135 -214 215 -216 0
63 135 -214 -215 216 0
63 -135 214 215 -216 0
63 -135 214 -215 216 0
63 -135 -214 215 216 0
63 -135 -214 -215 -216 0
-63 135 214 215 -216 0
-63 135 214 -215 216 0
-63 135 -214 215 216 0
-63 135 -214 -215 -216 0
-63 -135 214 215 216 0
-63 -135 214 -215 -216 0
-63 -135 -214 215 -216 0
-63 -135 -214 -215 216 0
10 185 217 218 -219 0
10 185 217 -218 219 0
10 185 -217 218 219 0
10 185 -217 -218 -219 0
10 -185 217 218 219 0
10 -185 217 -218 -219 0
10 -185 -217 218 -219 0
10 -185 -217 -218 219 0
-10 185 217 218 219 0
-10 185 217 -218 -219 0
-10 185 -217 218 -219 0
-10 185 -217 -218 219 0
-10 -185 217 218 -219 0
-10 -185 217 -218 219 0
-10 -185 -217 218 219 0
-10 -185 -217 -218 -219 0
22 121 138 220 -221 0
22 121 138 -220 221 0
22 121 -138 220 221 0
22 121 -138 -220 -221 0
22 -121 138 220 221 0
22 -121 138 -220 -221 0
22 -121 -138 220 -221 0
22 -121 -138 -220 221 0
-22 121 138 220 221 0
-22 121 138 -220 -221 0
-22 121 -138 220 -221 0
-22 121 -138 -220 221 0
-22 -121 138 220 -221 0
-22 -121 138 -220 221 0
-22 -121 -138 220 221 0
-22 -121 -138 -220 -221 0
96 148 214 222 -223 0
96 148 214 -222 223 0
96 148 -214 222 223 0
96 148 -214 -222 -223 0
96 -148 214 222 223 0
96 -148 214 -222 -223 0
96 -148 -214 222 -223 0
96 -148 -214 -222 223 0
-96 148 214 222 223 0
-96 148 214 -222 -223 0
-96 148 -214 222 -223 0
-96 148 -214 -222 223 0
-96 -148 214 222 -223 0
-96 -148 214 -222 223 0
-96 -148 -214 222 223 0
-96 -148 -214 -222 -223 0
27 131 224 225 -226 0
27 131 224 -225 226 0
27 131 -224 225 226 0
27 131 -224 -225 -226 0
27 -131 224 225 226 0
27 -131 224 -225 -226 0
27 -131 -224 225 -226 0
27 -131 -224 -225 226 0
-27 131 224 225 226 0
-27 131 224 -225 -226 0
-27 131 -224 225 -226 0
-27 131 -224 -225 226 0
-27 -131 224 225 -226 0
-27 -131 224 -225 226 0
-27 -131 -224 225 226 0
-27 -131 -224 -225 -226 0
23 192 227 228 229 0
23 192 227 -228 -229 0
23 192 -227 228 -229 0
23 192 -227 -228 229 0
23 -192 227 228 -229 0
23 -192 227 -228 229 0
23 -192 -227 228 229 0
23 -192 -227 -228 -229 0
-23 192 227 228 -229 0
-23 192 227 -228 229 0
-23 192 -227 228 229 0
-23 192 -227 -228 -229 0
-23 -192 227 228 229 0
-23 -192 227 -228 -229 0
-23 -192 -227 228 -229 0
-23 -192 -227 -228 229 0
161 207 230 231 -232 0
161 207 230 -231 232 0
161 207 -230 231 232 0
161 207 -230 -231 -232 0
161 -207 230 231 232 0
161 -207 230 -231 -232 0
161 -207 -230 231 -232 0
161 -207 -230 -231 232 0
-161 207 230 231 232 0
-161 207 230 -231 -232 0
-161 207 -230 231 -232 0
-161 207 -230 -231 232 0
-161 -207 230 231 -232 0
-161 -207 230 -231 232 0
-161 -207 -230 231 232 0
-161 -207 -230 -231 -232 0
72 84 154 211 224 0
72 84 154 -211 -224 0
72 84 -154 211 -224 0
72 84 -154 -211 224 0
72 -84 154 211 -224 0
72 -84 154 -211 224 0
72 -84 -154 211 224 0
72 -84 -154 -211 -224 0
-72 84 154 211 -224 0
-72 84 154 -211 224 0
-72 84 -154 211 224 0
-72 84 -154 -211 -224 0
-72 -84 154 211 224 0
-72 -84 154 -211 -224 0
-72 -84 -154 211 -224 0
-72 -84 -154 -211 224 0
54 78 149 208 233 0
54 78 149 -208 -233 0
54 78 -149 208 -233 0
54 78 -149 -208 233 0
54 -78 149 208 -233 0
54 -78 149 -208 233 0
54 -78 -149 208 233 0
54 -78 -149 -208 -233 0
-54 78 149 208 -233 0
-54 78 149 -208 233 0
-54 78 -149 208 233 0
-54 78 -149 -208 -233 0
-54 -78 149 208 233 0
-54 -78 149 -208 -233 0
-54 -78 -149 208 -233 0
-54 -78 -149 -208 233 0
17 166 234 235 -236 0
17 166 234 -235 236 0
17 166 -234 235 236 0
17 166 -234 -235 -236 0
17 -166 234 235 236 0
17 -166 234 -235 -236 0
17 -166 -234 235 -236 0
17 -166 -234 -235 236 0
-17 166 234 235 236 0
-17 166 234 -235 -236 0
-17 166 -234 235 -236 0
-17 166 -234 -235 236 0
-17 -166 234 235 -236 0
-17 -166 234 -235 236 0
-17 -166 -234 235 236 0
-17 -166 -234 -235 -236 0
18 100 181 204 237 0
18 100 181 -204 -237 0
18 100 -181 204 -237 0
18 100 -181 -204 237 0
18 -100 181 204 -237 0
18 -100 181 -204 237 0
18 -100 -181 204 237 0
18 -100 -181 -204 -237 0
-18 100 181 204 -237 0
-18 100 181 -204 237 0
-18 100 -181 204 237 0
-18 100 -181 -204 -237 0
-18 -100 181 204 237 0
-18 -100 181 -204 -237 0
-18 -100 -181 204 -237 0
-18 -100 -181 -204 237 0
101 168 195 227 238 0
101 168 195 -227 -238 0
101 168 -195 227 -238 0
101 168 -195 -227 238 0
101 -168 195 227 -238 0
101 -168 195 -227 238 0
101 -168 -195 227 238 0
101 -168 -195 -227 -238 0
-101 168 195 227 -238 0
-101 168 195 -227 238 0
-101 168 -195 227 238 0
-101 168 -195 -227 -238 0
-101 -168 195 227 238 0
-101 -168 195 -227 -238 0
-101 -168 -195 227 -238 0
-101 -168 -195 -227 238 0
143 147 186 230 -239 0
143 147 186 -230 239 0
143 147 -186 230 239 0
143 147 -186 -230 -239 0
143 -147 186 230 239 0
143 -147 186 -230 -239 0
143 -147 -186 230 -239 0
143 -147 -186 -230 239 0
-143 147 186 230 239 0
-143 147 186 -230 -239 0
-143 147 -186 230 -239 0
-143 147 -186 -230 239 0
-143 -147 186 230 -239 0
-143 -147 186 -230 239 0
-143 -147 -186 230 239 0
-143 -147 -186 -230 -239 0
189 209 225 240 241 0
189 209 225 -240 -241 0
189 209 -225 240 -241 0
189 209 -225 -240 241 0
189 -209 225 240 -241 0
189 -209 225 -240 241 0
189 -209 -225 240 241 0
189 -209 -225 -240 -241 0
-189 209 225 240 -241 0
-189 209 225 -240 241 0
-189 209 -225 240 241 0
-189 209 -225 -240 -241 0
-189 -209 225 240 241 0
-189 -209 225 -240 -241 0
-189 -209 -225 240 -241 0
-189 -209 -225 -240 241 0
162 190 242 243 -244 0
162 190 242 -243 244 0
162 190 -242 243 244 0
162 190 -242 -243 -244 0
162 -190 242 243 244 0
162 -190 242 -243 -244 0
162 -190 -242 243 -244 0
162 -190 -242 -243 244 0
-162 190 242 243 244 0
-162 190 242 -243 -244 0
-162 190 -242 243 -244 0
-162 190 -242 -243 244 0
-162 -190 242 243 -244 0
-162 -190 242 -243 244 0
-162 -190 -242 243 244 0
-162 -190 -242 -243 -244 0
74 177 199 245 246 0
74 177 199 -245 -246 0
74 177 -199 245 -246 0
74 177 -199 -245 246 0
74 -177 199 245 -246 0
74 -177 199 -245 246 0
74 -177 -199 245 246 0
74 -177 -199 -245 -246 0
-74 177 199 245 -246 0
-74 177 199 -245 246 0
-74 177 -199 245 246 0
-74 177 -199 -245 -246 0
-74 -177 199 245 246 0
-74 -177 199 -245 -246 0
-74 -177 -199 245 -246 0
-74 -177 -199 -245 246 0
91 178 215 233 -247 0
91 178 215 -233 247 0
91 178 -215 233 247 0
91 178 -215 -233 -247 0
91 -178 215 233 247 0
91 -178 215 -233 -247 0
91 -178 -215 233 -247 0
91 -178 -215 -233 247 0
-91 178 215 233 247 0
-91 178 215 -233 -247 0
-91 178 -215 233 -247 0
-91 178 -215 -233 247 0
-91 -178 215 233 -247 0
-91 -178 215 -233 247 0
-91 -178 -215 233 247 0
-91 -178 -215 -233 -247 0
43 79 150 248 -249 0
43 79 150 -248 249 0
43 79 -150 248 249 0
43 79 -150 -248 -249 0
43 -79 150 248 249 0
43 -79 150 -248 -249 0
43 -79 -150 248 -249 0
43 -79 -150 -248 249 0
-43 79 150 248 249 0
-43 79 150 -248 -249 0
-43 79 -150 248 -249 0
-43 79 -150 -248 249 0
-43 -79 150 248 -249 0
-43 -79 150 -248 249 0
-43 -79 -150 248 249 0
-43 -79 -150 -248 -249 0
144 175 179 210 250 0
144 175 179 -210 -250 0
144 175 -179 210 -250 0
144 175 -179 -210 250 0
144 -175 179 210 -250 0
144 -175 179 -210 250 0
144 -175 -179 210 250 0
144 -175 -179 -210 -250 0
-144 175 179 210 -250 0
-144 175 179 -210 250 0
-144 175 -179 210 250 0
-144 175 -179 -210 -250 0
-144 -175 179 210 250 0
-144 -175 179 -210 -250 0
-144 -175 -179 210 -250 0
-144 -175 -179 -210 250 0
75 139 176 234 251 0
75 139 176 -234 -251 0
75 139 -176 234 -251 0
75 139 -176 -234 251 0
75 -139 176 234 -251 0
75 -139 176 -234 251 0
75 -139 -176 234 251 0
75 -139 -176 -234 -251 0
-75 139 176 234 -251 0
-75 139 176 -234 251 0
-75 139 -176 234 251 0
-75 139 -176 -234 -251 0
-75 -139 176 234 251 0
-75 -139 176 -234 -251 0
-75 -139 -176 234 -251 0
-75 -139 -176 -234 251 0
60 151 222 235 252 0
60 151 222 -235 -252 0
60 151 -222 235 -252 0
60 151 -222 -235 252 0
60 -151 222 235 -252 0
60 -151 222 -235 252 0
60 -151 -222 235 252 0
60 -151 -222 -235 -252 0
-60 151 222 235 -252 0
-60 151 222 -235 252 0
-60 151 -222 235 252 0
-60 151 -222 -235 -252 0
-60 -151 222 235 252 0
-60 -151 222 -235 -252 0
-60 -151 -222 235 -252 0
-60 -151 -222 -235 252 0
39 242 247 253 254 0
39 242 247 -253 -254 0
39 242 -247 253 -254 0
39 242 -247 -253 254 0
39 -242 247 253 -254 0
39 -242 247 -253 254 0
39 -242 -247 253 254 0
39 -242 -247 -253 -254 0
-39 242 247 253 -254 0
-39 242 247 -253 254 0
-39 242 -247 253 254 0
-39 242 -247 -253 -254 0
-39 -242 247 253 254 0
-39 -242 247 -253 -254 0
-39 -242 -247 253 -254 0
-39 -242 -247 -253 254 0
64 171 187 223 250 0
64 171 187 -223 -250 0
64 171 -187 223 -250 0
64 171 -187 -223 250 0
64 -171 187 223 -250 0
64 -171 187 -223 250 0
64 -171 -187 223 250 0
64 -171 -187 -223 -250 0
-64 171 187 223 -250 0
-64 171 187 -223 250 0
-64 171 -187 223 250 0
-64 171 -187 -223 -250 0
-64 -171 187 223 250 0
-64 -171 187 -223 -250 0
-64 -171 -187 223 -250 0
-64 -171 -187 -223 250 0
4 69 106 228 -255 0
4 69 106 -228 255 0
4 69 -106 228 255 0
4 69 -106 -228 -255 0
4 -69 106 228 255 0
4 -69 106 -228 -255 0
4 -69 -106 228 -255 0
4 -69 -106 -228 255 0
-4 69 106 228 255 0
-4 69 106 -228 -255 0
-4 69 -106 228 -255 0
-4 69 -106 -228 255 0
-4 -69 106 228 -255 0
-4 -69 106 -228 255 0
-4 -69 -106 228 255 0
-4 -69 -106 -228 -255 0
28 85 226 256 -257 0
28 85 226 -256 257 0
28 85 -226 256 257 0
28 85 -226 -256 -257 0
28 -85 226 256 257 0
28 -85 226 -256 -257 0
28 -85 -226 256 -257 0
28 -85 -226 -256 257 0
-28 85 226 256 257 0
-28 85 226 -256 -257 0
-28 85 -226 256 -257 0
-28 85 -226 -256 257 0
-28 -85 226 256 -257 0
-28 -85 226 -256 257 0
-28 -85 -226 256 257 0
-28 -85 -226 -256 -257 0
136 216 239 240 -252 0
136 216 239 -240 252 0
136 216 -239 240 252 0
136 216 -239 -240 -252 0
136 -216 239 240 252 0
136 -216 239 -240 -252 0
136 -216 -239 240 -252 0
136 -216 -239 -240 252 0
-136 216 239 240 252 0
-136 216 239 -240 -252 0
-136 216 -239 240 -252 0
-136 216 -239 -240 252 0
-136 -216 239 240 -252 0
-136 -216 239 -240 252 0
-136 -216 -239 240 252 0
-136 -216 -239 -240 -252 0
47 107 132 238 258 0
47 107 132 -238 -258 0
47 107 -132 238 -258 0
47 107 -132 -238 258 0
47 -107 132 238 -258 0
47 -107 132 -238 258 0
47 -107 -132 238 258 0
47 -107 -132 -238 -258 0
-47 107 132 238 -258 0
-47 107 132 -238 258 0
-47 107 -132 238 258 0
-47 107 -132 -238 -258 0
-47 -107 132 238 258 0
-47 -107 132 -238 -258 0
-47 -107 -132 238 -258 0
-47 -107 -132 -238 258 0
61 92 110 123 -259 0
61 92 110 -123 259 0
61 92 -110 123 259 0
61 92 -110 -123 -259 0
61 -92 110 123 259 0
61 -92 110 -123 -259 0
61 -92 -110 123 -259 0
61 -92 -110 -123 259 0
-61 92 110 123 259 0
-61 92 110 -123 -259 0
-61 92 -110 123 -259 0
-61 92 -110 -123 259 0
-61 -92 110 123 -259 0
-61 -92 110 -123 259 0
-61 -92 -110 123 259 0
-61 -92 -110 -123 -259 0
14 19 155 172 -260 0
14 19 155 -172 260 0
14 19 -155 172 260 0
14 19 -155 -172 -260 0
14 -19 155 172 260 0
14 -19 155 -172 -260 0
14 -19 -155 172 -260 0
14 -19 -155 -172 260 0
-14 19 155 172 260 0
-14 19 155 -172 -260 0
-14 19 -155 172 -260 0
-14 19 -155 -172 260 0
-14 -19 155 172 -260 0
-14 -19 155 -172 260 0
-14 -19 -155 172 260 0
-14 -19 -155 -172 -260 0
140 145 261 262 -263 0
140 145 261 -262 263 0
140 145 -261 262 263 0
140 145 -261 -262 -263 0
140 -145 261 262 263 0
140 -145 261 -262 -263 0
140 -145 -261 262 -263 0
140 -145 -261 -262 263 0
-140 145 261 262 263 0
-140 145 261 -262 -263 0
-140 145 -261 262 -263 0
-140 145 -261 -262 263 0
-140 -145 261 262 -263 0
-140 -145 261 -262 263 0
-140 -145 -261 262 263 0
-140 -145 -261 -262 -263 0
173 231 236 248 -264 0
173 231 236 -248 264 0
173 231 -236 248 264 0
173 231 -236 -248 -264 0
173 -231 236 248 264 0
173 -231 236 -248 -264 0
173 -231 -236 248 -264 0
173 -231 -236 -248 264 0
-173 231 236 248 264 0
-173 231 236 -248 -264 0
-173 231 -236 248 -264 0
-173 231 -236 -248 264 0
-173 -231 236 248 -264 0
-173 -231 236 -248 264 0
-173 -231 -236 248 264 0
-173 -231 -236 -248 -264 0
55 196 205 212 -265 0
55 196 205 -212 265 0
55 196 -205 212 265 0
55 196 -205 -212 -265 0
55 -196 205 212 265 0
55 -196 205 -212 -265 0
55 -196 -205 212 -265 0
55 -196 -205 -212 265 0
-55 196 205 212 265 0
-55 196 205 -212 -265 0
-55 196 -205 212 -265 0
-55 196 -205 -212 265 0
-55 -196 205 212 -265 0
-55 -196 205 -212 265 0
-55 -196 -205 212 265 0
-55 -196 -205 -212 -265 0
124 163 202 259 266 0
124 163 202 -259 -266 0
124 163 -202 259 -266 0
124 163 -202 -259 266 0
124 -163 202 259 -266 0
124 -163 202 -259 266 0
124 -163 -202 259 266 0
124 -163 -202 -259 -266 0
-124 163 202 259 -266 0
-124 163 202 -259 266 0
-124 163 -202 259 266 0
-124 163 -202 -259 -266 0
-124 -163 202 259 266 0
-124 -163 202 -259 -266 0
-124 -163 -202 259 -266 0
-124 -163 -202 -259 266 0
76 137 261 267 268 0
76 137 261 -267 -268 0
76 137 -261 267 -268 0
76 137 -261 -267 268 0
76 -137 261 267 -268 0
76 -137 261 -267 268 0
76 -137 -261 267 268 0
76 -137 -261 -267 -268 0
-76 137 261 267 -268 0
-76 137 261 -267 268 0
-76 137 -261 267 268 0
-76 137 -261 -267 -268 0
-76 -137 261 267 268 0
-76 -137 261 -267 -268 0
-76 -137 -261 267 -268 0
-76 -137 -261 -267 268 0
111 114 197 237 -253 0
111 114 197 -237 253 0
111 114 -197 237 253 0
111 114 -197 -237 -253 0
111 -114 197 237 253 0
111 -114 197 -237 -253 0
111 -114 -197 237 -253 0
111 -114 -197 -237 253 0
-111 114 197 237 253 0
-111 114 197 -237 -253 0
-111 114 -197 237 -253 0
-111 114 -197 -237 253 0
-111 -114 197 237 -253 0
-111 -114 197 -237 253 0
-111 -114 -197 237 253 0
-111 -114 -197 -237 -253 0
102 116 167 269 270 0
102 116 167 -269 -270 0
102 116 -167 269 -270 0
102 116 -167 -269 270 0
102 -116 167 269 -270 0
102 -116 167 -269 270 0
102 -116 -167 269 270 0
102 -116 -167 -269 -270 0
-102 116 167 269 -270 0
-102 116 167 -269 270 0
-102 116 -167 269 270 0
-102 116 -167 -269 -270 0
-102 -116 167 269 270 0
-102 -116 167 -269 -270 0
-102 -116 -167 269 -270 0
-102 -116 -167 -269 270 0
24 191 198 220 245 0
24 191 198 -220 -245 0
24 191 -198 220 -245 0
24 191 -198 -220 245 0
24 -191 198 220 -245 0
24 -191 198 -220 245 0
24 -191 -198 220 245 0
24 -191 -198 -220 -245 0
-24 191 198 220 -245 0
-24 191 198 -220 245 0
-24 191 -198 220 245 0
-24 191 -198 -220 -245 0
-24 -191 198 220 245 0
-24 -191 198 -220 -245 0
-24 -191 -198 220 -245 0
-24 -191 -198 -220 245 0
125 133 170 262 -267 0
125 133 170 -262 267 0
125 133 -170 262 267 0
125 133 -170 -262 -267 0
125 -133 170 262 267 0
125 -133 170 -262 -267 0
125 -133 -170 262 -267 0
125 -133 -170 -262 267 0
-125 133 170 262 267 0
-125 133 170 -262 -267 0
-125 133 -170 262 -267 0
-125 133 -170 -262 267 0
-125 -133 170 262 -267 0
-125 -133 170 -262 267 0
-125 -133 -170 262 267 0
-125 -133 -170 -262 -267 0
156 229 263 266 -271 0
156 229 263 -266 271 0
156 229 -263 266 271 0
156 229 -263 -266 -271 0
156 -229 263 266 271 0
156 -229 263 -266 -271 0
156 -229 -263 266 -271 0
156 -229 -263 -266 271 0
-156 229 263 266 271 0
-156 229 263 -266 -271 0
-156 229 -263 266 -271 0
-156 229 -263 -266 271 0
-156 -229 263 266 -271 0
-156 -229 263 -266 271 0
-156 -229 -263 266 271 0
-156 -229 -263 -266 -271 0
97 221 256 272 -273 0
97 221 256 -272 273 0
97 221 -256 272 273 0
97 221 -256 -272 -273 0
97 -221 256 272 273 0
97 -221 256 -272 -273 0
97 -221 -256 272 -273 0
97 -221 -256 -272 273 0
-97 221 256 272 273 0
-97 221 256 -272 -273 0
-97 221 -256 272 -273 0
-97 221 -256 -272 273 0
-97 -221 256 272 -273 0
-97 -221 256 -272 273 0
-97 -221 -256 272 273 0
-97 -221 -256 -272 -273 0
200 241 251 264 -274 0
200 241 251 -264 274 0
200 241 -251 264 274 0
200 241 -251 -264 -274 0
200 -241 251 264 274 0
200 -241 251 -264 -274 0
200 -241 -251 264 -274 0
200 -241 -251 -264 274 0
-200 241 251 264 274 0
-200 241 251 -264 -274 0
-200 241 -251 264 -274 0
-200 241 -251 -264 274 0
-200 -241 251 264 -274 0
-200 -241 251 -264 274 0
-200 -241 -251 264 274 0
-200 -241 -251 -264 -274 0
15 29 126 213 249 0
15 29 126 -213 -249 0
15 29 -126 213 -249 0
15 29 -126 -213 249 0
15 -29 126 213 -249 0
15 -29 126 -213 249 0
15 -29 -126 213 249 0
15 -29 -126 -213 -249 0
-15 29 126 213 -249 0
-15 29 126 -213 249 0
-15 29 -126 213 249 0
-15 29 -126 -213 -249 0
-15 -29 126 213 249 0
-15 -29 126 -213 -249 0
-15 -29 -126 213 -249 0
-15 -29 -126 -213 249 0
127 129 201 255 -272 0
127 129 201 -255 272 0
127 129 -201 255 272 0
127 129 -201 -255 -272 0
127 -129 201 255 272 0
127 -129 201 -255 -272 0
127 -129 -201 255 -272 0
127 -129 -201 -255 272 0
-127 129 201 255 272 0
-127 129 201 -255 -272 0
-127 129 -201 255 -272 0
-127 129 -201 -255 272 0
-127 -129 201 255 -272 0
-127 -129 201 -255 272 0
-127 -129 -201 255 272 0
-127 -129 -201 -255 -272 0
33 56 169 206 -268 0
33 56 169 -206 268 0
33 56 -169 206 268 0
33 56 -169 -206 -268 0
33 -56 169 206 268 0
33 -56 169 -206 -268 0
33 -56 -169 206 -268 0
33 -56 -169 -206 268 0
-33 56 169 206 268 0
-33 56 169 -206 -268 0
-33 56 -169 206 -268 0
-33 56 -169 -206 268 0
-33 -56 169 206 -268 0
-33 -56 169 -206 268 0
-33 -56 -169 206 268 0
-33 -56 -169 -206 -268 0
5 34 122 203 243 0
5 34 122 -203 -243 0
5 34 -122 203 -243 0
5 34 -122 -203 243 0
5 -34 122 203 -243 0
5 -34 122 -203 243 0
5 -34 -122 203 243 0
5 -34 -122 -203 -243 0
-5 34 122 203 -243 0
-5 34 122 -203 243 0
-5 34 -122 203 243 0
-5 34 -122 -203 -243 0
-5 -34 122 203 243 0
-5 -34 122 -203 -243 0
-5 -34 -122 203 -243 0
-5 -34 -122 -203 243 0
80 152 180 257 -275 0
80 152 180 -257 275 0
80 152 -180 257 275 0
80 152 -180 -257 -275 0
80 -152 180 257 275 0
80 -152 180 -257 -275 0
80 -152 -180 257 -275 0
80 -152 -180 -257 275 0
-80 152 180 257 275 0
-80 152 180 -257 -275 0
-80 152 -180 257 -275 0
-80 152 -180 -257 275 0
-80 -152 180 257 -275 0
-80 -152 180 -257 275 0
-80 -152 -180 257 275 0
-80 -152 -180 -257 -275 0
77 217 244 273 275 0
77 217 244 -273 -275 0
77 217 -244 273 -275 0
77 217 -244 -273 275 0
77 -217 244 273 -275 0
77 -217 244 -273 275 0
77 -217 -244 273 275 0
77 -217 -244 -273 -275 0
-77 217 244 273 -275 0
-77 217 244 -273 275 0
-77 217 -244 273 275 0
-77 217 -244 -273 -275 0
-77 -217 244 273 275 0
-77 -217 244 -273 -275 0
-77 -217 -244 273 -275 0
-77 -217 -244 -273 275 0
103 157 182 265 269 0
103 157 182 -265 -269 0
103 157 -182 265 -269 0
103 157 -182 -265 269 0
103 -157 182 265 -269 0
103 -157 182 -265 269 0
103 -157 -182 265 269 0
103 -157 -182 -265 -269 0
-103 157 182 265 -269 0
-103 157 182 -265 269 0
-103 157 -182 265 269 0
-103 157 -182 -265 -269 0
-103 -157 182 265 269 0
-103 -157 182 -265 -269 0
-103 -157 -182 265 -269 0
-103 -157 -182 -265 269 0
81 130 218 254 260 0
81 130 218 -254 -260 0
81 130 -218 254 -260 0
81 130 -218 -254 260 0
81 -130 218 254 -260 0
81 -130 218 -254 260 0
81 -130 -218 254 260 0
81 -130 -218 -254 -260 0
-81 130 218 254 -260 0
-81 130 218 -254 260 0
-81 130 -218 254 260 0
-81 130 -218 -254 -260 0
-81 -130 218 254 260 0
-81 -130 218 -254 -260 0
-81 -130 -218 254 -260 0
-81 -130 -218 -254 260 0
73 174 183 258 -271 0
73 174 183 -258 271 0
73 174 -183 258 271 0
73 174 -183 -258 -271 0
73 -174 183 258 271 0
73 -174 183 -258 -271 0
73 -174 -183 258 -271 0
73 -174 -183 -258 271 0
-73 174 183 258 271 0
-73 174 183 -258 -271 0
-73 174 -183 258 -271 0
-73 174 -183 -258 271 0
-73 -174 183 258 -271 0
-73 -174 183 -258 271 0
-73 -174 -183 258 271 0
-73 -174 -183 -258 -271 0
98 117 141 193 232 0
98 117 141 -193 -232 0
98 117 -141 193 -232 0
98 117 -141 -193 232 0
98 -117 141 193 -232 0
98 -117 141 -193 232 0
98 -117 -141 193 232 0
98 -117 -141 -193 -232 0
-98 117 141 193 -232 0
-98 117 141 -193 232 0
-98 117 -141 193 232 0
-98 117 -141 -193 -232 0
-98 -117 141 193 232 0
-98 -117 141 -193 -232 0
-98 -117 -141 193 -232 0
-98 -117 -141 -193 232 0
65 93 118 159 -270 0
65 93 118 -159 270 0
65 93 -118 159 270 0
65 93 -118 -159 -270 0
65 -93 118 159 270 0
65 -93 118 -159 -270 0
65 -93 -118 159 -270 0
65 -93 -118 -159 270 0
-65 93 118 159 270 0
-65 93 118 -159 -270 0
-65 93 -118 159 -270 0
-65 93 -118 -159 270 0
-65 -93 118 159 -270 0
-65 -93 118 -159 270 0
-65 -93 -118 159 270 0
-65 -93 -118 -159 -270 0
112 160 219 246 -274 0
112 160 219 -246 274 0
112 160 -219 246 274 0
112 160 -219 -246 -274 0
112 -160 219 246 274 0
112 -160 219 -246 -274 0
112 -160 -219 246 -274 0
112 -160 -219 -246 274 0
-112 160 219 246 274 0
-112 160 219 -246 -274 0
-112 160 -219 246 -274 0
-112 160 -219 -246 274 0
-112 -160 219 246 -274 0
-112 -160 219 -246 274 0
-112 -160 -219 246 274 0
-112 -160 -219 -246 -274 0
